transportation8.sol
Transportation 8 - SuperMachine
z = 15.0
x11 = 0.0
x12 = 1.0
x13 = 0.0
x14 = 0.0
x15 = 0.0
x21 = 0.0
x22 = 0.0
x23 = 0.0
x24 = 1.0
x25 = 0.0
x31 = 0.0
x32 = 0.0
x33 = 1.0
x34 = 0.0
x35 = 0.0
x41 = 1.0
x42 = 0.0
x43 = 0.0
x44 = 0.0
x45 = 0.0
